10
10
1010003
0
0
90 25 9 77 2 3 34 67 95 53 
1
0
56 10 50 31 73 52 64 72 41 96 
2
0
64 49 18 31 18 89 43 45 43 45 
3
0
1 93 65 30 65 73 23 36 92 97 
4
0
51 41 10 91 71 70 49 46 21 49 
5
0
44 78 64 55 96 77 93 67 74 91 
6
0
21 89 81 85 96 2 75 58 96 81 
7
0
40 19 12 86 85 54 50 97 30 27 
8
0
41 95 60 73 88 91 73 69 46 26 
9
0
63 86 60 16 83 16 78 90 60 80 
